NAME          DCAP_3_4_2_300_SS67
ROWS
 N  OBJ
 L  CON1
 L  CON2
 L  CON3
 L  CON4
 L  CON5
 L  CON6
 L  CON7
 L  CON8
 L  CON9
 L  CON10
 L  CON11
 L  CON12
 E  CON13
 E  CON14
 E  CON15
 E  CON16
 E  CON17
 E  CON18
 E  CON19
 E  CON20
COLUMNS
    x[1,1]    OBJ       6.180167      CON1      1.000000    
    x[1,1]    CON7      -1.000000     CON8      -1.000000   
    x[1,2]    OBJ       5.039546      CON2      1.000000    
    x[1,2]    CON8      -1.000000   
    x[2,1]    OBJ       6.732585      CON3      1.000000    
    x[2,1]    CON9      -1.000000     CON10     -1.000000   
    x[2,2]    OBJ       7.443064      CON4      1.000000    
    x[2,2]    CON10     -1.000000   
    x[3,1]    OBJ       6.563535      CON5      1.000000    
    x[3,1]    CON11     -1.000000     CON12     -1.000000   
    x[3,2]    OBJ       6.054841      CON6      1.000000    
    x[3,2]    CON12     -1.000000   
    MARKER    'MARKER'                'INTORG'
    u[1,1]    OBJ       48.076654     CON1      -1.000000   
    u[1,2]    OBJ       49.466655     CON2      -1.000000   
    u[2,1]    OBJ       49.996186     CON3      -1.000000   
    u[2,2]    OBJ       32.230043     CON4      -1.000000   
    u[3,1]    OBJ       20.066487     CON5      -1.000000   
    u[3,2]    OBJ       27.484319     CON6      -1.000000   
    y[1,1,1]  OBJ       5.223263      CON7      1.322242    
    y[1,1,1]  CON13     1.000000    
    y[1,1,2]  OBJ       5.869133      CON8      0.644419    
    y[1,1,2]  CON14     1.000000    
    y[1,2,1]  OBJ       7.999845      CON7      1.296679    
    y[1,2,1]  CON15     1.000000    
    y[1,2,2]  OBJ       7.011483      CON8      0.838739    
    y[1,2,2]  CON16     1.000000    
    y[1,3,1]  OBJ       8.212140      CON7      0.752723    
    y[1,3,1]  CON17     1.000000    
    y[1,3,2]  OBJ       7.933845      CON8      1.110770    
    y[1,3,2]  CON18     1.000000    
    y[1,4,1]  OBJ       9.175126      CON7      0.940988    
    y[1,4,1]  CON19     1.000000    
    y[1,4,2]  OBJ       5.324848      CON8      1.059995    
    y[1,4,2]  CON20     1.000000    
    y[2,1,1]  OBJ       6.814742      CON9      1.322242    
    y[2,1,1]  CON13     1.000000    
    y[2,1,2]  OBJ       7.989205      CON10     0.644419    
    y[2,1,2]  CON14     1.000000    
    y[2,2,1]  OBJ       9.057730      CON9      1.296679    
    y[2,2,1]  CON15     1.000000    
    y[2,2,2]  OBJ       8.298356      CON10     0.838739    
    y[2,2,2]  CON16     1.000000    
    y[2,3,1]  OBJ       8.568040      CON9      0.752723    
    y[2,3,1]  CON17     1.000000    
    y[2,3,2]  OBJ       5.264621      CON10     1.110770    
    y[2,3,2]  CON18     1.000000    
    y[2,4,1]  OBJ       8.931733      CON9      0.940988    
    y[2,4,1]  CON19     1.000000    
    y[2,4,2]  OBJ       6.537671      CON10     1.059995    
    y[2,4,2]  CON20     1.000000    
    y[3,1,1]  OBJ       5.468234      CON11     1.322242    
    y[3,1,1]  CON13     1.000000    
    y[3,1,2]  OBJ       8.689159      CON12     0.644419    
    y[3,1,2]  CON14     1.000000    
    y[3,2,1]  OBJ       5.991602      CON11     1.296679    
    y[3,2,1]  CON15     1.000000    
    y[3,2,2]  OBJ       6.267716      CON12     0.838739    
    y[3,2,2]  CON16     1.000000    
    y[3,3,1]  OBJ       5.282022      CON11     0.752723    
    y[3,3,1]  CON17     1.000000    
    y[3,3,2]  OBJ       9.177515      CON12     1.110770    
    y[3,3,2]  CON18     1.000000    
    y[3,4,1]  OBJ       8.540785      CON11     0.940988    
    y[3,4,1]  CON19     1.000000    
    y[3,4,2]  OBJ       8.483519      CON12     1.059995    
    y[3,4,2]  CON20     1.000000    
    z[1,1]    OBJ       545.686678    CON13     1.000000    
    z[1,2]    OBJ       933.260514    CON14     1.000000    
    z[2,1]    OBJ       574.647388    CON15     1.000000    
    z[2,2]    OBJ       570.787001    CON16     1.000000    
    z[3,1]    OBJ       877.388620    CON17     1.000000    
    z[3,2]    OBJ       501.324192    CON18     1.000000    
    z[4,1]    OBJ       746.949203    CON19     1.000000    
    z[4,2]    OBJ       889.366527    CON20     1.000000    
    MARKER    'MARKER'                 'INTEND'
RHS
    RHS       CON1      -0.000000     CON2      -0.000000   
    RHS       CON3      -0.000000     CON4      -0.000000   
    RHS       CON5      -0.000000     CON6      -0.000000   
    RHS       CON7      -0.000000     CON8      -0.000000   
    RHS       CON9      -0.000000     CON10     -0.000000   
    RHS       CON11     -0.000000     CON12     -0.000000   
    RHS       CON13     1.000000      CON14     1.000000    
    RHS       CON15     1.000000      CON16     1.000000    
    RHS       CON17     1.000000      CON18     1.000000    
    RHS       CON19     1.000000      CON20     1.000000    
BOUNDS
 BV BOUND     u[1,1]  
 BV BOUND     u[1,2]  
 BV BOUND     u[2,1]  
 BV BOUND     u[2,2]  
 BV BOUND     u[3,1]  
 BV BOUND     u[3,2]  
 BV BOUND     y[1,1,1]
 BV BOUND     y[1,1,2]
 BV BOUND     y[1,2,1]
 BV BOUND     y[1,2,2]
 BV BOUND     y[1,3,1]
 BV BOUND     y[1,3,2]
 BV BOUND     y[1,4,1]
 BV BOUND     y[1,4,2]
 BV BOUND     y[2,1,1]
 BV BOUND     y[2,1,2]
 BV BOUND     y[2,2,1]
 BV BOUND     y[2,2,2]
 BV BOUND     y[2,3,1]
 BV BOUND     y[2,3,2]
 BV BOUND     y[2,4,1]
 BV BOUND     y[2,4,2]
 BV BOUND     y[3,1,1]
 BV BOUND     y[3,1,2]
 BV BOUND     y[3,2,1]
 BV BOUND     y[3,2,2]
 BV BOUND     y[3,3,1]
 BV BOUND     y[3,3,2]
 BV BOUND     y[3,4,1]
 BV BOUND     y[3,4,2]
 BV BOUND     z[1,1]  
 BV BOUND     z[1,2]  
 BV BOUND     z[2,1]  
 BV BOUND     z[2,2]  
 BV BOUND     z[3,1]  
 BV BOUND     z[3,2]  
 BV BOUND     z[4,1]  
 BV BOUND     z[4,2]  
ENDATA
